615, bestPath : 125	124	123	112	106	105	101	100	99	104	113	117	120	129	122	111	97	92	88	73	52	44	45	27	26	25	18	24	16	15	14	13	17	12	4	11	5	0	6	7	1	2	8	9	3	10	23	43	42	41	40	39	22	21	20	19	28	29	30	31	32	33	34	35	36	37	38	58	59	60	72	71	79	85	84	83	82	78	68	64	61	69	65	75	70	66	62	57	56	55	51	50	49	48	47	46	54	53	63	67	74	76	77	80	81	86	87	91	93	98	107	108	114	118	115	109	110	94	90	89	95	96	103	102	121	116	119	128	127	126	130	125